->GOOD
50.0    10.0
10.0    100.0
100.0   10.0
250.0   10.0
350.0   10.0
400.0   150.0
920.0   150.0
920.0   500.0
->EDGES
0 1  3.0
0 2  2.0
1 0  3.0
1 4  7.0
2 0  2.0
2 3  2.0
2 4  5.0
3 2  2.0
3 4  2.0
3 5  4.0
4 1  7.0
4 2  5.0
4 3  2.0
4 5  6.0
5 3  4.0
5 4  6.0
5 6  9.0
6 5  9.0